c Random generated cnf formula, satisfiable: false
p cnf 10 50
7 -3 -4 0
-9 1 5 0
-9 -6 5 0
-1 8 -5 0
4 2 3 0
-8 -5 10 0
2 6 -8 0
10 -6 -2 0
6 -3 -1 0
-2 8 -1 0
6 5 9 0
3 9 -8 0
2 5 -6 0
4 -2 -8 0
-1 7 9 0
-8 -2 10 0
9 4 7 0
7 10 -8 0
-7 -1 5 0
9 -5 3 0
-10 -2 9 0
-6 -8 9 0
-3 10 -4 0
6 7 4 0
3 -8 -5 0
8 -1 -9 0
6 3 4 0
-5 -10 -7 0
4 -5 1 0
-3 -1 -9 0
-1 9 4 0
-5 -7 4 0
-2 6 1 0
-3 -4 -10 0
8 -4 -9 0
1 10 -2 0
-9 5 -6 0
6 -2 5 0
-8 -4 1 0
-7 4 -9 0
-8 -5 -4 0
-4 -2 -7 0
10 -9 6 0
8 10 -4 0
4 -2 -10 0
6 1 -10 0
6 1 4 0
3 8 -1 0
9 4 2 0
8 4 -10 0
